c Generated map
c Size: 12 * 12, weights in range: 1 to 10, walls: False, with ratio 0.0
c dim 1 of 5
c
p sp 144 264
c graph contains 144 nodes and 264 arcs
c
a 1 13 8
a 13 1 8
a 1 2 5
a 2 1 5
a 2 14 7
a 14 2 7
a 2 3 2
a 3 2 2
a 3 15 9
a 15 3 9
a 3 4 7
a 4 3 7
a 4 16 6
a 16 4 6
a 4 5 2
a 5 4 2
a 5 17 5
a 17 5 5
a 5 6 8
a 6 5 8
a 6 18 7
a 18 6 7
a 6 7 8
a 7 6 8
a 7 19 2
a 19 7 2
a 7 8 4
a 8 7 4
a 8 20 7
a 20 8 7
a 8 9 6
a 9 8 6
a 9 21 3
a 21 9 3
a 9 10 7
a 10 9 7
a 10 22 2
a 22 10 2
a 10 11 7
a 11 10 7
a 11 23 3
a 23 11 3
a 11 12 1
a 12 11 1
a 12 24 2
a 24 12 2
a 13 25 2
a 25 13 2
a 13 14 2
a 14 13 2
a 14 26 3
a 26 14 3
a 14 15 3
a 15 14 3
a 15 27 7
a 27 15 7
a 15 16 2
a 16 15 2
a 16 28 6
a 28 16 6
a 16 17 4
a 17 16 4
a 17 29 9
a 29 17 9
a 17 18 1
a 18 17 1
a 18 30 1
a 30 18 1
a 18 19 9
a 19 18 9
a 19 31 4
a 31 19 4
a 19 20 10
a 20 19 10
a 20 32 3
a 32 20 3
a 20 21 6
a 21 20 6
a 21 33 6
a 33 21 6
a 21 22 4
a 22 21 4
a 22 34 10
a 34 22 10
a 22 23 1
a 23 22 1
a 23 35 8
a 35 23 8
a 23 24 8
a 24 23 8
a 24 36 2
a 36 24 2
a 25 37 7
a 37 25 7
a 25 26 5
a 26 25 5
a 26 38 9
a 38 26 9
a 26 27 6
a 27 26 6
a 27 39 4
a 39 27 4
a 27 28 7
a 28 27 7
a 28 40 10
a 40 28 10
a 28 29 4
a 29 28 4
a 29 41 7
a 41 29 7
a 29 30 3
a 30 29 3
a 30 42 7
a 42 30 7
a 30 31 7
a 31 30 7
a 31 43 1
a 43 31 1
a 31 32 6
a 32 31 6
a 32 44 4
a 44 32 4
a 32 33 9
a 33 32 9
a 33 45 5
a 45 33 5
a 33 34 2
a 34 33 2
a 34 46 4
a 46 34 4
a 34 35 7
a 35 34 7
a 35 47 9
a 47 35 9
a 35 36 3
a 36 35 3
a 36 48 3
a 48 36 3
a 37 49 2
a 49 37 2
a 37 38 5
a 38 37 5
a 38 50 9
a 50 38 9
a 38 39 5
a 39 38 5
a 39 51 1
a 51 39 1
a 39 40 2
a 40 39 2
a 40 52 2
a 52 40 2
a 40 41 6
a 41 40 6
a 41 53 7
a 53 41 7
a 41 42 2
a 42 41 2
a 42 54 6
a 54 42 6
a 42 43 3
a 43 42 3
a 43 55 3
a 55 43 3
a 43 44 6
a 44 43 6
a 44 56 8
a 56 44 8
a 44 45 6
a 45 44 6
a 45 57 3
a 57 45 3
a 45 46 8
a 46 45 8
a 46 58 4
a 58 46 4
a 46 47 4
a 47 46 4
a 47 59 6
a 59 47 6
a 47 48 5
a 48 47 5
a 48 60 7
a 60 48 7
a 49 61 4
a 61 49 4
a 49 50 2
a 50 49 2
a 50 62 1
a 62 50 1
a 50 51 3
a 51 50 3
a 51 63 7
a 63 51 7
a 51 52 7
a 52 51 7
a 52 64 7
a 64 52 7
a 52 53 10
a 53 52 10
a 53 65 9
a 65 53 9
a 53 54 9
a 54 53 9
a 54 66 6
a 66 54 6
a 54 55 2
a 55 54 2
a 55 67 8
a 67 55 8
a 55 56 3
a 56 55 3
a 56 68 5
a 68 56 5
a 56 57 4
a 57 56 4
a 57 69 4
a 69 57 4
a 57 58 8
a 58 57 8
a 58 70 5
a 70 58 5
a 58 59 3
a 59 58 3
a 59 71 4
a 71 59 4
a 59 60 2
a 60 59 2
a 60 72 2
a 72 60 2
a 61 73 2
a 73 61 2
a 61 62 1
a 62 61 1
a 62 74 9
a 74 62 9
a 62 63 10
a 63 62 10
a 63 75 6
a 75 63 6
a 63 64 6
a 64 63 6
a 64 76 5
a 76 64 5
a 64 65 7
a 65 64 7
a 65 77 9
a 77 65 9
a 65 66 5
a 66 65 5
a 66 78 7
a 78 66 7
a 66 67 6
a 67 66 6
a 67 79 3
a 79 67 3
a 67 68 3
a 68 67 3
a 68 80 3
a 80 68 3
a 68 69 6
a 69 68 6
a 69 81 10
a 81 69 10
a 69 70 3
a 70 69 3
a 70 82 9
a 82 70 9
a 70 71 8
a 71 70 8
a 71 83 3
a 83 71 3
a 71 72 9
a 72 71 9
a 72 84 4
a 84 72 4
a 73 85 4
a 85 73 4
a 73 74 8
a 74 73 8
a 74 86 6
a 86 74 6
a 74 75 9
a 75 74 9
a 75 87 10
a 87 75 10
a 75 76 8
a 76 75 8
a 76 88 10
a 88 76 10
a 76 77 3
a 77 76 3
a 77 89 4
a 89 77 4
a 77 78 4
a 78 77 4
a 78 90 3
a 90 78 3
a 78 79 1
a 79 78 1
a 79 91 4
a 91 79 4
a 79 80 9
a 80 79 9
a 80 92 3
a 92 80 3
a 80 81 1
a 81 80 1
a 81 93 3
a 93 81 3
a 81 82 8
a 82 81 8
a 82 94 5
a 94 82 5
a 82 83 10
a 83 82 10
a 83 95 4
a 95 83 4
a 83 84 8
a 84 83 8
a 84 96 9
a 96 84 9
a 85 97 6
a 97 85 6
a 85 86 5
a 86 85 5
a 86 98 9
a 98 86 9
a 86 87 5
a 87 86 5
a 87 99 3
a 99 87 3
a 87 88 10
a 88 87 10
a 88 100 10
a 100 88 10
a 88 89 6
a 89 88 6
a 89 101 5
a 101 89 5
a 89 90 3
a 90 89 3
a 90 102 5
a 102 90 5
a 90 91 4
a 91 90 4
a 91 103 2
a 103 91 2
a 91 92 1
a 92 91 1
a 92 104 4
a 104 92 4
a 92 93 7
a 93 92 7
a 93 105 8
a 105 93 8
a 93 94 9
a 94 93 9
a 94 106 7
a 106 94 7
a 94 95 6
a 95 94 6
a 95 107 5
a 107 95 5
a 95 96 4
a 96 95 4
a 96 108 9
a 108 96 9
a 97 109 5
a 109 97 5
a 97 98 4
a 98 97 4
a 98 110 1
a 110 98 1
a 98 99 1
a 99 98 1
a 99 111 10
a 111 99 10
a 99 100 10
a 100 99 10
a 100 112 6
a 112 100 6
a 100 101 2
a 101 100 2
a 101 113 7
a 113 101 7
a 101 102 5
a 102 101 5
a 102 114 2
a 114 102 2
a 102 103 7
a 103 102 7
a 103 115 9
a 115 103 9
a 103 104 4
a 104 103 4
a 104 116 1
a 116 104 1
a 104 105 6
a 105 104 6
a 105 117 7
a 117 105 7
a 105 106 7
a 106 105 7
a 106 118 10
a 118 106 10
a 106 107 3
a 107 106 3
a 107 119 2
a 119 107 2
a 107 108 2
a 108 107 2
a 108 120 4
a 120 108 4
a 109 121 6
a 121 109 6
a 109 110 8
a 110 109 8
a 110 122 1
a 122 110 1
a 110 111 8
a 111 110 8
a 111 123 4
a 123 111 4
a 111 112 2
a 112 111 2
a 112 124 2
a 124 112 2
a 112 113 4
a 113 112 4
a 113 125 1
a 125 113 1
a 113 114 7
a 114 113 7
a 114 126 6
a 126 114 6
a 114 115 3
a 115 114 3
a 115 127 7
a 127 115 7
a 115 116 10
a 116 115 10
a 116 128 8
a 128 116 8
a 116 117 1
a 117 116 1
a 117 129 10
a 129 117 10
a 117 118 9
a 118 117 9
a 118 130 2
a 130 118 2
a 118 119 7
a 119 118 7
a 119 131 9
a 131 119 9
a 119 120 2
a 120 119 2
a 120 132 6
a 132 120 6
a 121 133 1
a 133 121 1
a 121 122 5
a 122 121 5
a 122 134 4
a 134 122 4
a 122 123 7
a 123 122 7
a 123 135 7
a 135 123 7
a 123 124 6
a 124 123 6
a 124 136 6
a 136 124 6
a 124 125 7
a 125 124 7
a 125 137 10
a 137 125 10
a 125 126 4
a 126 125 4
a 126 138 8
a 138 126 8
a 126 127 6
a 127 126 6
a 127 139 3
a 139 127 3
a 127 128 6
a 128 127 6
a 128 140 8
a 140 128 8
a 128 129 4
a 129 128 4
a 129 141 3
a 141 129 3
a 129 130 3
a 130 129 3
a 130 142 4
a 142 130 4
a 130 131 1
a 131 130 1
a 131 143 4
a 143 131 4
a 131 132 1
a 132 131 1
a 132 144 7
a 144 132 7
a 133 134 5
a 134 133 5
a 134 135 6
a 135 134 6
a 135 136 9
a 136 135 9
a 136 137 7
a 137 136 7
a 137 138 2
a 138 137 2
a 138 139 6
a 139 138 6
a 139 140 2
a 140 139 2
a 140 141 4
a 141 140 4
a 141 142 1
a 142 141 1
a 142 143 8
a 143 142 8
a 143 144 9
a 144 143 9
